4 100 2247
11 9 5 9 9 13 6 9 8 10
2 2 2 3
5 7
6 7
4 2
6 2 3
0 40.0 50.0 0.0 0.0 0 1236
2 45.0 68.0 90.0 10.0 0 1127 49 0 1 0 0 0 0 0 0 1 0
3 45.0 70.0 90.0 30.0 0 1125 94 0 0 0 0 0 1 0 1 0 0
4 42.0 66.0 90.0 10.0 0 1129 37 0 0 0 0 0 0 0 1 0 0
5 42.0 68.0 90.0 10.0 727 782 66 0 1 0 0 0 0 1 0 0 0
6 42.0 65.0 90.0 10.0 0 1130 70 0 0 0 0 0 1 0 0 0 0
7 40.0 69.0 90.0 20.0 621 702 94 1 0 0 1 0 0 0 1 0 0
8 40.0 66.0 90.0 20.0 0 1130 90 1 0 0 0 0 0 0 0 1 0
9 38.0 68.0 90.0 20.0 255 324 87 0 0 1 0 0 0 0 0 0 0
10 38.0 70.0 90.0 10.0 534 605 85 0 0 1 0 0 0 0 0 0 1
11 35.0 66.0 90.0 10.0 357 410 59 1 0 0 0 0 0 0 0 0 0
12 35.0 69.0 90.0 10.0 448 505 34 0 0 0 0 1 0 0 0 0 0
13 25.0 85.0 90.0 20.0 0 1107 91 0 0 0 0 0 0 0 1 0 1
14 22.0 75.0 90.0 30.0 30 92 12 0 0 0 0 0 1 0 0 1 1
15 22.0 85.0 90.0 10.0 0 1106 79 0 0 0 0 0 0 0 0 0 1
16 20.0 80.0 90.0 40.0 384 429 34 1 1 0 1 0 0 0 0 0 0
17 20.0 85.0 90.0 40.0 0 1105 59 0 1 0 0 0 0 0 0 0 0
18 18.0 75.0 90.0 20.0 99 148 96 0 0 0 0 0 0 0 1 0 1
19 15.0 75.0 90.0 20.0 0 1110 60 0 1 0 0 0 1 0 0 0 0
20 15.0 80.0 90.0 10.0 0 1106 60 0 1 1 0 0 1 0 0 0 0
21 30.0 50.0 90.0 10.0 0 1136 7 1 0 0 0 1 0 1 0 0 0
22 30.0 52.0 90.0 20.0 0 1135 17 0 0 0 0 0 1 0 0 0 1
23 28.0 52.0 90.0 20.0 812 883 77 0 0 0 0 0 1 0 0 0 0
24 28.0 55.0 90.0 10.0 732 777 97 1 0 0 0 0 0 0 0 0 1
25 25.0 50.0 90.0 10.0 0 1131 31 1 0 1 0 0 0 0 0 0 0
26 25.0 52.0 90.0 40.0 169 224 37 1 0 0 1 0 0 0 0 0 0
27 25.0 55.0 90.0 10.0 0 1130 75 1 0 0 0 0 0 0 1 0 0
28 23.0 52.0 90.0 10.0 261 316 48 1 0 0 0 0 1 0 0 1 0
29 23.0 55.0 90.0 20.0 0 1128 90 0 0 0 0 1 0 0 0 1 0
30 20.0 50.0 90.0 10.0 0 1126 15 0 0 0 0 0 1 0 0 0 0
31 20.0 55.0 90.0 10.0 449 504 21 1 1 0 0 0 0 0 0 0 1
32 10.0 35.0 90.0 20.0 0 1112 1 0 0 0 0 0 1 0 0 0 0
33 10.0 40.0 90.0 30.0 0 1114 68 1 0 1 0 0 0 1 0 1 0
34 8.0 40.0 90.0 40.0 87 158 48 1 1 1 0 0 0 0 0 0 1
35 8.0 45.0 90.0 20.0 0 1113 9 0 1 1 0 1 0 0 0 1 0
36 5.0 35.0 90.0 10.0 283 344 21 1 0 1 0 0 1 0 0 0 0
37 5.0 45.0 90.0 10.0 665 716 59 0 0 0 0 0 1 0 0 0 0
38 2.0 40.0 90.0 20.0 0 1106 0 0 1 0 0 1 1 0 0 0 0
39 0.0 40.0 90.0 30.0 479 522 40 0 0 1 0 1 1 0 0 0 0
40 0.0 45.0 90.0 20.0 567 624 43 0 0 0 0 0 1 0 0 0 0
41 35.0 30.0 90.0 10.0 264 321 61 0 1 0 1 0 0 0 0 0 0
42 35.0 32.0 90.0 10.0 166 235 55 1 0 0 0 0 0 0 0 0 1
43 33.0 32.0 90.0 20.0 68 149 2 0 0 0 1 0 0 0 0 0 0
44 33.0 35.0 90.0 10.0 0 1129 8 0 0 0 0 0 1 0 0 0 0
45 32.0 30.0 90.0 10.0 359 412 17 1 0 0 0 0 0 0 0 1 1
46 30.0 30.0 90.0 10.0 541 600 72 0 0 0 0 0 0 1 0 0 1
47 30.0 32.0 90.0 30.0 0 1125 84 1 1 0 0 1 0 0 0 0 0
48 30.0 35.0 90.0 10.0 0 1127 45 1 0 0 1 0 0 0 0 0 1
49 28.0 30.0 90.0 10.0 0 1122 19 0 0 0 0 0 1 0 0 0 0
50 28.0 35.0 90.0 10.0 1001 1066 88 0 0 0 0 0 1 0 0 0 0
51 26.0 32.0 90.0 10.0 0 1123 35 1 0 1 0 0 0 0 0 0 0
52 25.0 30.0 90.0 10.0 0 1121 1 1 0 0 0 0 0 0 1 0 0
53 25.0 35.0 90.0 10.0 0 1124 25 1 0 0 0 0 0 0 0 1 0
54 44.0 5.0 90.0 20.0 286 347 76 0 0 0 1 0 0 0 1 1 0
55 42.0 10.0 90.0 40.0 0 1105 38 0 0 0 0 0 1 0 0 0 0
56 42.0 15.0 90.0 10.0 95 158 65 0 0 0 0 0 1 0 0 0 0
57 40.0 5.0 90.0 30.0 385 436 37 0 0 0 1 0 1 0 1 0 1
58 40.0 15.0 90.0 40.0 0 1111 37 0 0 0 0 0 1 1 0 0 0
59 38.0 5.0 90.0 30.0 471 534 32 0 1 0 0 0 0 0 0 0 1
60 38.0 15.0 90.0 10.0 0 1110 79 1 0 0 0 0 0 0 0 0 0
61 35.0 5.0 90.0 20.0 0 1100 29 1 0 0 1 0 1 0 0 0 0
62 50.0 30.0 90.0 10.0 0 1123 16 1 0 0 0 0 0 0 0 0 1
63 50.0 35.0 90.0 20.0 262 317 11 1 0 0 0 1 0 1 0 0 0
64 50.0 40.0 90.0 50.0 0 1131 59 0 0 0 0 0 1 1 1 0 0
65 48.0 30.0 90.0 10.0 632 693 43 0 1 0 0 1 1 1 0 0 1
66 48.0 40.0 90.0 10.0 76 129 97 1 0 0 0 0 0 0 0 0 1
67 47.0 35.0 90.0 10.0 826 875 5 0 0 0 0 0 0 0 0 0 1
68 47.0 40.0 90.0 10.0 12 77 7 0 0 0 0 0 0 0 1 0 0
69 45.0 30.0 90.0 10.0 734 777 45 1 0 0 0 0 0 0 1 0 0
70 45.0 35.0 90.0 10.0 916 969 5 1 0 0 0 0 1 0 0 0 1
71 95.0 30.0 90.0 30.0 387 456 13 0 0 1 1 0 0 0 1 1 0
72 95.0 35.0 90.0 20.0 0 1088 47 0 0 0 0 0 0 0 0 0 1
73 53.0 30.0 90.0 10.0 0 1122 52 0 0 0 1 1 0 0 0 1 0
74 92.0 30.0 90.0 10.0 0 1090 53 0 0 0 0 0 0 1 0 1 0
75 53.0 35.0 90.0 50.0 353 412 30 0 0 0 1 0 0 1 0 1 0
76 45.0 65.0 90.0 20.0 0 1130 93 0 0 0 0 0 1 0 0 0 0
77 90.0 35.0 90.0 10.0 203 260 46 1 0 0 1 1 0 1 1 0 0
78 88.0 30.0 90.0 10.0 574 643 4 0 1 0 0 0 0 0 0 0 0
79 88.0 35.0 90.0 20.0 109 170 45 0 0 1 0 0 1 1 0 1 0
80 87.0 30.0 90.0 10.0 668 731 79 0 0 0 1 0 0 0 0 1 1
81 85.0 25.0 90.0 10.0 769 820 57 0 0 0 0 0 0 1 0 0 0
82 85.0 35.0 90.0 30.0 0 1098 84 0 0 0 0 1 0 0 0 0 1
83 75.0 55.0 90.0 20.0 0 1110 49 0 0 0 0 1 1 0 0 0 1
84 72.0 55.0 90.0 10.0 0 1113 81 0 0 0 1 0 0 0 0 0 0
85 70.0 58.0 90.0 20.0 458 523 84 0 0 0 0 0 1 0 0 0 0
86 68.0 60.0 90.0 30.0 0 1116 57 0 0 1 0 0 0 0 0 1 0
87 66.0 55.0 90.0 10.0 0 1119 8 0 0 0 0 1 1 0 1 0 0
88 65.0 55.0 90.0 20.0 85 144 2 0 1 1 0 0 0 0 1 1 0
89 65.0 60.0 90.0 30.0 645 708 45 0 1 0 0 1 0 0 0 0 0
90 63.0 58.0 90.0 10.0 0 1121 98 1 1 0 0 1 0 0 0 1 0
91 60.0 55.0 90.0 10.0 0 1125 92 0 0 0 0 1 0 0 1 0 0
92 60.0 60.0 90.0 10.0 0 1123 63 0 0 0 0 0 0 0 0 1 1
93 67.0 85.0 90.0 20.0 368 441 81 0 0 0 0 0 1 0 0 0 0
94 65.0 85.0 90.0 40.0 475 518 91 0 0 0 0 0 1 0 0 0 0
95 65.0 82.0 90.0 10.0 0 1105 91 1 0 0 0 1 0 0 0 0 0
96 62.0 80.0 90.0 30.0 0 1108 67 0 0 0 0 0 1 1 0 1 0
97 60.0 80.0 90.0 10.0 0 1109 65 0 1 0 0 0 0 1 1 0 0
98 60.0 85.0 90.0 30.0 0 1105 58 1 0 0 1 0 0 0 0 0 0
99 58.0 75.0 90.0 20.0 0 1115 37 1 0 0 0 0 0 0 1 0 0
100 55.0 80.0 90.0 10.0 743 820 55 0 0 0 0 0 1 0 0 0 0
101 55.0 85.0 90.0 20.0 647 726 22 0 0 0 0 0 0 0 1 0 0